SPARKNaCl/why3-cvc5/sparknacl-hashing-sha2_common.ads_20_69_division_check_1.smt2
;; produced by cvc5.drv ;;
(set-logic ALL)
(set-info :smt-lib-version 2.6)
;;; generated by SMT-LIB2 driver
;;; SMT-LIB2 driver: bit-vectors, common part
;;; SMT-LIB2: integer arithmetic
;; "pow2"
(declare-fun pow2 (Int) Int)

(declare-const two_power_size_minus_one Int)

;; "two_power_size_minus_one_val"
(assert (= two_power_size_minus_one (pow2 (- 8 1))))

;; "min"
(define-fun min ((x Int) (y Int)) Int
  (ite (<= x y) x y))

;; "max"
(define-fun max ((x Int) (y Int)) Int
  (ite (<= x y) y x))

;; "Min_r"
(assert (forall ((x Int) (y Int)) (=> (<= y x) (= (min x y) y))))

;; "Max_l"
(assert (forall ((x Int) (y Int)) (=> (<= y x) (= (max x y) x))))

;; "Min_comm"
(assert (forall ((x Int) (y Int)) (= (min x y) (min y x))))

;; "Max_comm"
(assert (forall ((x Int) (y Int)) (= (max x y) (max y x))))

;; "Min_assoc"
(assert
  (forall ((x Int) (y Int) (z Int)) (= (min (min x y) z) (min x (min y z)))))

;; "Max_assoc"
(assert
  (forall ((x Int) (y Int) (z Int)) (= (max (max x y) z) (max x (max y z)))))

;; "lsr"
(declare-fun lsr ((_ BitVec 64)
  Int) (_ BitVec 64))

(declare-const two_power_size_minus_one1 Int)

;; "two_power_size_minus_one_val"
(assert (= two_power_size_minus_one1 (pow2 (- 64 1))))

;; "lsr_bv_is_lsr"
(assert
  (forall ((x (_ BitVec 64)) (n (_ BitVec 64)))
    (= (bvlshr x n) (lsr x (bv2nat n)))))

;; "in_range"
(define-fun in_range ((x Int)) Bool
  (and (<= (- 2147483648) x) (<= x 2147483647)))

;; "in_range"
(define-fun in_range1 ((x Int)) Bool
  (and (<= 0 x) (<= x 2147483647)))

(declare-const input (_ BitVec 64))

(declare-const index Int)

(declare-const shift_amount Int)

(declare-const shifted_input (_ BitVec 64))

(declare-const result__ (_ BitVec 8))

;; "in_range"
(define-fun in_range2 ((x Int)) Bool
  (and (<= 0 x) (<= x 7)))

;; Goal "def'vc"
;; File "sparknacl-hashing-sha2_common.ads", line 15, characters 0-0
(assert
  (not
  (=>
    (in_range2 index)
    (=>
      (= (* (- 7 index) 8) shift_amount)
      (=>
        (in_range shift_amount)
        (let ((o shift_amount))
          (=>
            (in_range1 o)
            (=>
              (= (bvlshr input ((_ int2bv 64) o)) shifted_input)
              (=>
                (= ((_ extract 7 0) (bvurem shifted_input #x0000000000000100)) 
                result__)
                (forall ((ada___ada___sparknacl__hashing__sha2_common__big_endian_get_byte__result (_ BitVec 8)))
                  (=>
                    (= ada___ada___sparknacl__hashing__sha2_common__big_endian_get_byte__result 
                    result__)
                    (not (= #x0000000000000100 #x0000000000000000)))))))))))))

(check-sat)
